6 9 12 69 4 60 3 30 64 5 26 29 19 61 31 48 42 52 14 49 51 21 17 0 36 8 66 55 24 35 62 38 45 76 43 65 59 56 22 50 41 70 67 20 75 33 1 47 23 37 28 72 18 7 10 46 16 25 40 73 68 53 74 71 58 44 11 54 63 32 13 27 2 15 57 39 34 